0     135   584   318   628   845   372   728   579   746   376    42
135     0   858   819   802   676   830   731   895   116   870    58
584   858     0   960   465   362   200   825   819   296    67   578
318   819   960     0   842    56   180   120   551   859   126   876
628   802   465   842     0    84    32   516   496   725   961   142
845   676   362    56    84     0   842   422   834   999   962   165
372   830   200   180    32   842     0   840   150   327   135   687
728   731   825   120   516   422   840     0   601   592   405   904
579   895   819   551   496   834   150   601     0   336   871   577
746   116   296   859   725   999   327   592   336     0    68   664
376   870    67   126   961   962   135   405   871    68     0   780
42     58   578   876   142   165   687   904   577   664   780     0